50
24955

689 232
879 964
884 903
460 589
366 806
294 105
675 413
766 294
260 572
900 566
719 32
357 124
781 482
993 636
348 925
400 584
805 386
891 132
737 917
835 61
343 393
585 638
57 748
483 636
149 352
371 660
982 72
927 264
379 151
382 171
848 651
217 119
491 742
429 776
151 840
464 187
914 984
724 877
376 463
138 218
727 296
314 367
404 495
694 904
518 33
358 14
439 977
452 642
653 914
443 131
